language ESSENCE' 1.0
$ loaded file: carseqdata/csplib-instance-35
letting numcars=200
letting numclasses=25
letting numoptions=5
letting optMax=[1, 2, 1, 2, 1]
letting windowSize=[2, 3, 3, 5, 5]
letting numberPerClass=[1, 36, 4, 4, 29, 11, 4, 2, 3, 7, 2, 5, 1, 3, 4, 43, 10, 12, 1, 1, 2, 2, 11, 1, 1]
letting optionsRequired=[[1, 1, 0, 0, 1], [0, 0, 0, 1, 0], [0, 1, 0, 0, 1], [1, 0, 0, 0, 1], [1, 0, 0, 0, 0], [1, 1, 0, 0, 0], [0, 0, 1, 1, 0], [0, 0, 0, 1, 1], [1, 0, 0, 1, 0], [0, 1, 1, 0, 0], [0, 0, 1, 1, 1], [1, 1, 1, 0, 0], [0, 1, 1, 1, 1], [0, 1, 1, 1, 0], [1, 0, 1, 1, 0], [0, 1, 0, 0, 0], [0, 0, 0, 0, 1], [0, 1, 0, 1, 0], [1, 0, 1, 0, 0], [1, 1, 1, 0, 1], [1, 1, 0, 1, 0], [0, 1, 0, 1, 1], [0, 0, 1, 0, 0], [1, 1, 1, 0, 0], [0, 0, 1, 0, 1]]
